; SPDX-License-Identifier: MPL-2.0
; Copyright (c) 2026 The RIINA Authors.
; Auto-generated from 02_FORMAL/coq/Industries/IndustryLegal.v (28 validations)
; Generated by scripts/generate-full-stack.py
;
; Translation Validation for IndustryLegal
; Layer 9: Verifies compiler backend preserves formal semantics.
; Each assertion checks source IR ≡ target code for a proven property.

(set-logic QF_LIA)
(set-option :produce-models true)

; IR node representation
(declare-sort IRNode 0)
(declare-sort TargetNode 0)

; legal_sensitivity: source semantics (matches Coq)
(declare-fun source_legal_sensitivity () Bool)
(declare-fun target_legal_sensitivity () Bool)
(assert (= source_legal_sensitivity target_legal_sensitivity))

; privilege_strength: source semantics (matches Coq)
(declare-fun source_privilege_strength () Bool)
(declare-fun target_privilege_strength () Bool)
(assert (= source_privilege_strength target_privilege_strength))

; privilege_effective: source semantics (matches Coq)
(declare-fun source_privilege_effective () Bool)
(declare-fun target_privilege_effective () Bool)
(assert (= source_privilege_effective target_privilege_effective))

; all_legal_controls: source semantics (matches Coq)
(declare-fun source_all_legal_controls () Bool)
(declare-fun target_all_legal_controls () Bool)
(assert (= source_all_legal_controls target_all_legal_controls))

; count_legal_controls: source semantics (matches Coq)
(declare-fun source_count_legal_controls () Bool)
(declare-fun target_count_legal_controls () Bool)
(assert (= source_count_legal_controls target_count_legal_controls))

; legal_retention_years: source semantics (matches Coq)
(declare-fun source_legal_retention_years () Bool)
(declare-fun target_legal_retention_years () Bool)
(assert (= source_legal_retention_years target_legal_retention_years))

; no_conflict: source semantics (matches Coq)
(declare-fun source_no_conflict () Bool)
(declare-fun target_no_conflict () Bool)
(assert (= source_no_conflict target_no_conflict))

; trust_balanced: source semantics (matches Coq)
(declare-fun source_trust_balanced () Bool)
(declare-fun target_trust_balanced () Bool)
(assert (= source_trust_balanced target_trust_balanced))

; litigation_hold_active: source semantics (matches Coq)
(declare-fun source_litigation_hold_active () Bool)
(declare-fun target_litigation_hold_active () Bool)
(assert (= source_litigation_hold_active target_litigation_hold_active))

; privilege_protection_axiom: translation preserves property (matches Coq: Theorem)
(declare-fun source_privilege_protection_axiom () Bool)
(declare-fun target_privilege_protection_axiom () Bool)
(assert (= source_privilege_protection_axiom target_privilege_protection_axiom))

; aba_model_rules: translation preserves property (matches Coq: Theorem)
(declare-fun source_aba_model_rules () Bool)
(declare-fun target_aba_model_rules () Bool)
(assert (= source_aba_model_rules target_aba_model_rules))

; conflict_screening_axiom: translation preserves property (matches Coq: Theorem)
(declare-fun source_conflict_screening_axiom () Bool)
(declare-fun target_conflict_screening_axiom () Bool)
(assert (= source_conflict_screening_axiom target_conflict_screening_axiom))

; ediscovery_compliance: translation preserves property (matches Coq: Theorem)
(declare-fun source_ediscovery_compliance () Bool)
(declare-fun target_ediscovery_compliance () Bool)
(assert (= source_ediscovery_compliance target_ediscovery_compliance))

; records_retention: translation preserves property (matches Coq: Theorem)
(declare-fun source_records_retention () Bool)
(declare-fun target_records_retention () Bool)
(assert (= source_records_retention target_records_retention))

; privilege_requires_encryption: translation preserves property (matches Coq: Theorem)
(declare-fun source_privilege_requires_encryption () Bool)
(declare-fun target_privilege_requires_encryption () Bool)
(assert (= source_privilege_requires_encryption target_privilege_requires_encryption))

; ethical_walls_effective: translation preserves property (matches Coq: Theorem)
(declare-fun source_ethical_walls_effective () Bool)
(declare-fun target_ethical_walls_effective () Bool)
(assert (= source_ethical_walls_effective target_ethical_walls_effective))

; privilege_max_sensitivity: translation preserves property (matches Coq: Theorem)
(declare-fun source_privilege_max_sensitivity () Bool)
(declare-fun target_privilege_max_sensitivity () Bool)
(assert (= source_privilege_max_sensitivity target_privilege_max_sensitivity))

; trust_equals_privilege_sensitivity: translation preserves property (matches Coq: Theorem)
(declare-fun source_trust_equals_privilege_sensitivity () Bool)
(declare-fun target_trust_equals_privilege_sensitivity () Bool)
(assert (= source_trust_equals_privilege_sensitivity target_trust_equals_privilege_sensitivity))

; legal_sensitivity_positive: translation preserves property (matches Coq: Theorem)
(declare-fun source_legal_sensitivity_positive () Bool)
(declare-fun target_legal_sensitivity_positive () Bool)
(assert (= source_legal_sensitivity_positive target_legal_sensitivity_positive))

; absolute_strongest: translation preserves property (matches Coq: Theorem)
(declare-fun source_absolute_strongest () Bool)
(declare-fun target_absolute_strongest () Bool)
(assert (= source_absolute_strongest target_absolute_strongest))

; waived_no_protection: translation preserves property (matches Coq: Theorem)
(declare-fun source_waived_no_protection () Bool)
(declare-fun target_waived_no_protection () Bool)
(assert (= source_waived_no_protection target_waived_no_protection))

; absolute_effective: translation preserves property (matches Coq: Theorem)
(declare-fun source_absolute_effective () Bool)
(declare-fun target_absolute_effective () Bool)
(assert (= source_absolute_effective target_absolute_effective))

; waived_not_effective: translation preserves property (matches Coq: Theorem)
(declare-fun source_waived_not_effective () Bool)
(declare-fun target_waived_not_effective () Bool)
(assert (= source_waived_not_effective target_waived_not_effective))

; qualified_effective: translation preserves property (matches Coq: Theorem)
(declare-fun source_qualified_effective () Bool)
(declare-fun target_qualified_effective () Bool)
(assert (= source_qualified_effective target_qualified_effective))

; all_legal_requires_privilege: translation preserves property (matches Coq: Theorem)
(declare-fun source_all_legal_requires_privilege () Bool)
(declare-fun target_all_legal_requires_privilege () Bool)
(assert (= source_all_legal_requires_privilege target_all_legal_requires_privilege))

; all_legal_requires_conflict_screening: translation preserves property (matches Coq: Theorem)
(declare-fun source_all_legal_requires_conflict_screening () Bool)
(declare-fun target_all_legal_requires_conflict_screening () Bool)
(assert (= source_all_legal_requires_conflict_screening target_all_legal_requires_conflict_screening))

; all_legal_requires_ethical_walls: translation preserves property (matches Coq: Theorem)
(declare-fun source_all_legal_requires_ethical_walls () Bool)
(declare-fun target_all_legal_requires_ethical_walls () Bool)
(assert (= source_all_legal_requires_ethical_walls target_all_legal_requires_ethical_walls))

; all_legal_requires_retention: translation preserves property (matches Coq: Theorem)
(declare-fun source_all_legal_requires_retention () Bool)
(declare-fun target_all_legal_requires_retention () Bool)
(assert (= source_all_legal_requires_retention target_all_legal_requires_retention))

; count_legal_bounded: translation preserves property (matches Coq: Theorem)
(declare-fun source_count_legal_bounded () Bool)
(declare-fun target_count_legal_bounded () Bool)
(assert (= source_count_legal_bounded target_count_legal_bounded))

; all_controls_count_six: translation preserves property (matches Coq: Theorem)
(declare-fun source_all_controls_count_six () Bool)
(declare-fun target_all_controls_count_six () Bool)
(assert (= source_all_controls_count_six target_all_controls_count_six))

; retention_minimum_3: translation preserves property (matches Coq: Theorem)
(declare-fun source_retention_minimum_3 () Bool)
(declare-fun target_retention_minimum_3 () Bool)
(assert (= source_retention_minimum_3 target_retention_minimum_3))

; privilege_longest_retention: translation preserves property (matches Coq: Theorem)
(declare-fun source_privilege_longest_retention () Bool)
(declare-fun target_privilege_longest_retention () Bool)
(assert (= source_privilege_longest_retention target_privilege_longest_retention))

; trust_equals_privilege_retention: translation preserves property (matches Coq: Theorem)
(declare-fun source_trust_equals_privilege_retention () Bool)
(declare-fun target_trust_equals_privilege_retention () Bool)
(assert (= source_trust_equals_privilege_retention target_trust_equals_privilege_retention))

; same_party_conflict: translation preserves property (matches Coq: Theorem)
(declare-fun source_same_party_conflict () Bool)
(declare-fun target_same_party_conflict () Bool)
(assert (= source_same_party_conflict target_same_party_conflict))

; different_parties_no_conflict: translation preserves property (matches Coq: Theorem)
(declare-fun source_different_parties_no_conflict () Bool)
(declare-fun target_different_parties_no_conflict () Bool)
(assert (= source_different_parties_no_conflict target_different_parties_no_conflict))

; trust_balance_correct: translation preserves property (matches Coq: Theorem)
(declare-fun source_trust_balance_correct () Bool)
(declare-fun target_trust_balance_correct () Bool)
(assert (= source_trust_balance_correct target_trust_balance_correct))

; hold_bounds: translation preserves property (matches Coq: Theorem)
(declare-fun source_hold_bounds () Bool)
(declare-fun target_hold_bounds () Bool)
(assert (= source_hold_bounds target_hold_bounds))

; Verify all translation validations are satisfiable
(check-sat)
(exit)
